decision_x1=[0,4];
decision_x2=[0,4];
decision_x3=[0,4];
decision_x4=[0,4];
random_y1=[0,4];
random_y2=[0,4];
constraint_x2_x1=[
0,1,7.4|
0,2,3.1|
0,3,3|
0,4,2.9|
1,0,8.2|
1,2,0.86|
1,3,0.14|
1,4,5.7|
2,0,1.6|
2,1,2.2|
2,3,1.9|
2,4,9.7|
3,0,4|
3,1,8.4|
3,2,9|
3,4,9.2|
4,0,8.8|
4,1,2.7|
4,2,10|
4,3,4.3|
];
constraint_x3_x2=[
0,1,4.7|
0,2,2.8|
0,3,9.2|
0,4,0.058|
1,0,8.2|
1,2,6.3|
1,3,7.4|
1,4,2|
2,0,0.73|
2,1,9.2|
2,3,5.3|
2,4,3.8|
3,0,1.4|
3,1,1.7|
3,2,1.1|
3,4,7.5|
4,0,4.1|
4,1,8.3|
4,2,4.4|
4,3,0.9|
];
constraint_x4_x3=[
0,1,6.9|
0,2,6.9|
0,3,6.3|
0,4,2.8|
1,0,8.9|
1,2,7.6|
1,3,8.7|
1,4,2.3|
2,0,1.2|
2,1,3.9|
2,3,6|
2,4,3.5|
3,0,1.2|
3,1,8.1|
3,2,0.3|
3,4,0.78|
4,0,8.3|
4,1,0.87|
4,2,4.4|
4,3,9.6|
];
constraint_x1_y1=[
0,0,0.042|
0,1,9.5|
0,2,5.1|
0,3,5.9|
0,4,2.4|
1,0,4.8|
1,1,5.7|
1,2,6.5|
1,3,2.8|
1,4,2.3|
2,0,1.7|
2,1,7.8|
2,2,1.2|
2,3,3|
2,4,5.9|
3,0,9.4|
3,1,3.2|
3,2,3.9|
3,3,9.9|
3,4,7.5|
4,0,1.3|
4,1,3.6|
4,2,3.6|
4,3,1|
4,4,3.8|
];
constraint_x2_y2=[
0,0,2.5|
0,1,0.85|
0,2,8.4|
0,3,2.5|
0,4,3.5|
1,0,4.9|
1,1,1.7|
1,2,0.93|
1,3,1.5|
1,4,9.6|
2,0,0.065|
2,1,1.3|
2,2,1|
2,3,6.9|
2,4,0.61|
3,0,1.4|
3,1,3.4|
3,2,8|
3,3,7.9|
3,4,2.3|
4,0,3.6|
4,1,9.9|
4,2,4.8|
4,3,3.2|
4,4,2|
];
initial_distribution_y1=[0.22,0.25,0.2,0.056,0.28];
initial_distribution_y2=[0.02,0.2,0.11,0.33,0.34];
transition_y1=[
0.1,0.27,0.41,0.017,0.2|
0.22,0.22,0.22,0.23,0.11|
0.37,0.097,0.18,0.012,0.35|
0.27,0.077,0.22,0.24,0.19|
0.24,0.24,0.14,0.22,0.15|
];
transition_y2=[
0.028,0.23,0.29,0.26,0.18|
0.35,0.16,0.079,0.28,0.14|
0.31,0.35,0.012,0.044,0.28|
0.17,0.07,0.29,0.22,0.24|
0.31,0.35,0.064,0.19,0.075|
];
